/*********************************************
 * OPL 12.6.0.0 Data
 * Author: Adrian Rodriguez Bazaga, Pau Rodriguez Esmerats
 * Creation Date: 06/12/2017 at 23:04:59
 *********************************************/

nNurses=265;
maxConsec=2;
maxPresence=7;
maxHours=5;
minHours=1;
hours=24;
demand= [37 53 60 61 53 60 61 53 53 27 6 6 7 6 7 6 4 3 1 0 36 70 34 46  ];
